(set-logic QF_NRA)
; benchmark generated from python API
(set-info :status unknown)
(declare-fun v1y () Real)
(declare-fun oy () Real)
(declare-fun v1x () Real)
(declare-fun R2 () Real)
(declare-fun xy () Real)
(declare-fun a1y () Real)
(declare-fun xx () Real)
(declare-fun a1x () Real)
(declare-fun rho2 () Real)
(declare-fun b1y () Real)
(declare-fun b1x () Real)
(declare-fun b2y () Real)
(declare-fun b2x () Real)
(declare-fun b3y () Real)
(declare-fun b3x () Real)
(assert
 (let ((?x26 (* (- 1.0) v1x)))
 (let ((?x25 (* (- 1.0) R2)))
 (let ((?x33 (+ (+ (+ (+ (/ 1.0 4.0) (* oy oy)) (* v1x v1x)) (* v1y v1y)) ?x25)))
 (= (+ (+ ?x33 ?x26) (* (* (- 2.0) oy) v1y)) 0.0)))))
(assert
 (= (+ (+ (/ 1.0 4.0) (* oy oy)) (* (- 1.0) R2)) 0.0))
(assert
 (let ((?x44 (* (- 1.0) rho2)))
 (let ((?x43 (* xy xy)))
 (let ((?x52 (+ (+ (+ (+ (* a1x a1x) (* a1y a1y)) (* xx xx)) ?x43) ?x44)))
 (= (+ (+ ?x52 (* (* (- 2.0) a1x) xx)) (* (* (- 2.0) a1y) xy)) 0.0)))))
(assert
 (let ((?x44 (* (- 1.0) rho2)))
 (let ((?x43 (* xy xy)))
 (let ((?x65 (+ (+ (+ (+ (* b1x b1x) (* b1y b1y)) (* xx xx)) ?x43) ?x44)))
 (= (+ (+ ?x65 (* (* (- 2.0) b1x) xx)) (* (* (- 2.0) b1y) xy)) 0.0)))))
(assert
 (let ((?x44 (* (- 1.0) rho2)))
 (let ((?x43 (* xy xy)))
 (let ((?x78 (+ (+ (+ (+ (* b2x b2x) (* b2y b2y)) (* xx xx)) ?x43) ?x44)))
 (= (+ (+ ?x78 (* (* (- 2.0) b2x) xx)) (* (* (- 2.0) b2y) xy)) 0.0)))))
(assert
 (let ((?x44 (* (- 1.0) rho2)))
 (let ((?x43 (* xy xy)))
 (let ((?x91 (+ (+ (+ (+ (* b3x b3x) (* b3y b3y)) (* xx xx)) ?x43) ?x44)))
 (= (+ (+ ?x91 (* (* (- 2.0) b3x) xx)) (* (* (- 2.0) b3y) xy)) 0.0)))))
(assert
 (let ((?x105 (+ (+ (+ (+ (- (/ 1.0 4.0)) R2) xx) (* (- 1.0) (* oy oy))) (* (- 1.0) (* xx xx)))))
 (>= (+ (+ ?x105 (* (- 1.0) (* xy xy))) (* (* 2.0 oy) xy)) 0.0)))
(assert
 (let ((?x21 (* oy oy)))
 (let ((?x96 (* (- 1.0) ?x21)))
 (let ((?x115 (+ (+ (+ (+ (- (/ 1.0 4.0)) R2) a1x) (* (- 1.0) (* a1x a1x))) (* (- 1.0) (* a1y a1y)))))
 (>= (+ (+ ?x115 ?x96) (* (* 2.0 a1y) oy)) 0.0)))))
(assert
 (let ((?x21 (* oy oy)))
 (let ((?x96 (* (- 1.0) ?x21)))
 (let ((?x125 (+ (+ (+ (+ (- (/ 1.0 4.0)) R2) b1x) (* (- 1.0) (* b1x b1x))) (* (- 1.0) (* b1y b1y)))))
 (>= (+ (+ ?x125 ?x96) (* (* 2.0 b1y) oy)) 0.0)))))
(assert
 (let ((?x21 (* oy oy)))
 (let ((?x96 (* (- 1.0) ?x21)))
 (let ((?x135 (+ (+ (+ (+ (- (/ 1.0 4.0)) R2) b2x) (* (- 1.0) (* b2x b2x))) (* (- 1.0) (* b2y b2y)))))
 (>= (+ (+ ?x135 ?x96) (* (* 2.0 b2y) oy)) 0.0)))))
(assert
 (let ((?x21 (* oy oy)))
 (let ((?x96 (* (- 1.0) ?x21)))
 (let ((?x145 (+ (+ (+ (+ (- (/ 1.0 4.0)) R2) b3x) (* (- 1.0) (* b3x b3x))) (* (- 1.0) (* b3y b3y)))))
 (>= (+ (+ ?x145 ?x96) (* (* 2.0 b3y) oy)) 0.0)))))
(assert
 (>= (+ (+ (* v1x v1x) (* v1y v1y)) (* (- 1.0) v1x)) 0.0))
(assert
 (>= v1x 0.0))
(assert
 (>= (+ 1.0 (* (- 1.0) v1x)) 0.0))
(assert
 (> R2 0.0))
(assert
 (> rho2 0.0))
(assert
 (let ((?x158 (* (- 1.0) v1y)))
 (let ((?x159 (* ?x158 xy)))
 (> ?x159 0.0))))
(assert
 (let ((?x166 (+ (+ (* v1y v1y) (* (* (- 1.0) v1y) xy)) (* (* (- 1.0) xx) (* v1y v1y)))))
 (> (+ ?x166 (* (* v1x v1y) xy)) 0.0)))
(assert
 (> (+ (* xx (* v1y v1y)) (* (* (* (- 1.0) v1x) v1y) xy)) 0.0))
(assert
 (let ((?x174 (* a1y v1y)))
 (> ?x174 0.0)))
(assert
 (let ((?x178 (* (- 1.0) a1y)))
 (let ((?x179 (* ?x178 v1x)))
 (let ((?x180 (* ?x179 v1y)))
 (let ((?x174 (* a1y v1y)))
 (let ((?x183 (+ (+ (+ (* (- 1.0) (* v1y v1y)) (* a1x (* v1y v1y))) ?x174) ?x180)))
 (> ?x183 0.0)))))))
(assert
 (> (+ (* a1x (* v1y v1y)) (* (* (* (- 1.0) a1y) v1x) v1y)) 0.0))
(assert
 (> (* b1y v1y) 0.0))
(assert
 (let ((?x193 (* b1y v1x)))
 (let ((?x194 (* ?x193 v1y)))
 (let ((?x196 (+ (+ (* v1y v1y) (* (* (- 1.0) b1x) (* v1y v1y))) (* (* (- 1.0) b1y) v1y))))
 (> (+ ?x196 ?x194) 0.0)))))
(assert
 (> (+ (* (* (- 1.0) b1x) (* v1y v1y)) (* (* b1y v1x) v1y)) 0.0))
(assert
 (> (* b2y v1y) 0.0))
(assert
 (let ((?x207 (* b2y v1x)))
 (let ((?x208 (* ?x207 v1y)))
 (let ((?x210 (+ (+ (* v1y v1y) (* (* (- 1.0) b2x) (* v1y v1y))) (* (* (- 1.0) b2y) v1y))))
 (> (+ ?x210 ?x208) 0.0)))))
(assert
 (> (+ (* (* (- 1.0) b2x) (* v1y v1y)) (* (* b2y v1x) v1y)) 0.0))
(assert
 (> (* b3y v1y) 0.0))
(assert
 (let ((?x221 (* b3y v1x)))
 (let ((?x222 (* ?x221 v1y)))
 (let ((?x224 (+ (+ (* v1y v1y) (* (* (- 1.0) b3x) (* v1y v1y))) (* (* (- 1.0) b3y) v1y))))
 (> (+ ?x224 ?x222) 0.0)))))
(assert
 (> (+ (* (* (- 1.0) b3x) (* v1y v1y)) (* (* b3y v1x) v1y)) 0.0))
(assert
 (let ((?x229 (* (- 1.0) xy)))
 (> ?x229 0.0)))
(assert
 (> (+ (* a1y xx) (* (* (- 1.0) a1x) xy)) 0.0))
(assert
 (> (+ (* v1y xx) (* (* (- 1.0) v1x) xy)) 0.0))
(assert
 (> (+ (* b1y xx) (* (* (- 1.0) b1x) xy)) 0.0))
(assert
 (> (+ (* b2y xx) (* (* (- 1.0) b2x) xy)) 0.0))
(assert
 (> (+ (* b3y xx) (* (* (- 1.0) b3x) xy)) 0.0))
(assert
 (> a1y 0.0))
(assert
 (> v1y 0.0))
(assert
 (> b1y 0.0))
(assert
 (> b2y 0.0))
(assert
 (> b3y 0.0))
(assert
 (> (+ (* a1x v1y) (* (* (- 1.0) a1y) v1x)) 0.0))
(assert
 (> (+ (* a1x b1y) (* (* (- 1.0) a1y) b1x)) 0.0))
(assert
 (> (+ (* a1x b2y) (* (* (- 1.0) a1y) b2x)) 0.0))
(assert
 (> (+ (* a1x b3y) (* (* (- 1.0) a1y) b3x)) 0.0))
(assert
 (> (+ (* b1y v1x) (* (* (- 1.0) b1x) v1y)) 0.0))
(assert
 (> (+ (* b2y v1x) (* (* (- 1.0) b2x) v1y)) 0.0))
(assert
 (> (+ (* b3y v1x) (* (* (- 1.0) b3x) v1y)) 0.0))
(assert
 (> (+ (* b1x b2y) (* (* (- 1.0) b1y) b2x)) 0.0))
(assert
 (> (+ (* b1x b3y) (* (* (- 1.0) b1y) b3x)) 0.0))
(assert
 (> (+ (* b2x b3y) (* (* (- 1.0) b2y) b3x)) 0.0))
(assert
 (let ((?x297 (+ (+ (+ a1y (* (- 1.0) xy)) (* a1x xy)) (* (* (- 1.0) a1y) xx))))
 (> ?x297 0.0)))
(assert
 (let ((?x158 (* (- 1.0) v1y)))
 (let ((?x300 (* ?x158 xx)))
 (> (+ (+ (+ v1y (* (- 1.0) xy)) (* v1x xy)) ?x300) 0.0))))
(assert
 (let ((?x191 (* (- 1.0) b1y)))
 (let ((?x306 (* ?x191 xx)))
 (> (+ (+ (+ b1y (* (- 1.0) xy)) (* b1x xy)) ?x306) 0.0))))
(assert
 (let ((?x205 (* (- 1.0) b2y)))
 (let ((?x312 (* ?x205 xx)))
 (> (+ (+ (+ b2y (* (- 1.0) xy)) (* b2x xy)) ?x312) 0.0))))
(assert
 (let ((?x219 (* (- 1.0) b3y)))
 (let ((?x318 (* ?x219 xx)))
 (> (+ (+ (+ b3y (* (- 1.0) xy)) (* b3x xy)) ?x318) 0.0))))
(assert
 (let ((?x158 (* (- 1.0) v1y)))
 (let ((?x300 (* ?x158 xx)))
 (let ((?x178 (* (- 1.0) a1y)))
 (let ((?x179 (* ?x178 v1x)))
 (let ((?x232 (* (- 1.0) a1x)))
 (let ((?x233 (* ?x232 xy)))
 (let ((?x326 (+ (+ (+ (+ (* a1x v1y) (* a1y xx)) (* v1x xy)) ?x233) ?x179)))
 (> (+ ?x326 ?x300) 0.0)))))))))
(assert
 (let ((?x191 (* (- 1.0) b1y)))
 (let ((?x306 (* ?x191 xx)))
 (let ((?x178 (* (- 1.0) a1y)))
 (let ((?x261 (* ?x178 b1x)))
 (let ((?x232 (* (- 1.0) a1x)))
 (let ((?x233 (* ?x232 xy)))
 (let ((?x332 (+ (+ (+ (+ (* a1x b1y) (* a1y xx)) (* b1x xy)) ?x233) ?x261)))
 (> (+ ?x332 ?x306) 0.0)))))))))
(assert
 (let ((?x205 (* (- 1.0) b2y)))
 (let ((?x312 (* ?x205 xx)))
 (let ((?x178 (* (- 1.0) a1y)))
 (let ((?x265 (* ?x178 b2x)))
 (let ((?x232 (* (- 1.0) a1x)))
 (let ((?x233 (* ?x232 xy)))
 (let ((?x338 (+ (+ (+ (+ (* a1x b2y) (* a1y xx)) (* b2x xy)) ?x233) ?x265)))
 (> (+ ?x338 ?x312) 0.0)))))))))
(assert
 (let ((?x219 (* (- 1.0) b3y)))
 (let ((?x318 (* ?x219 xx)))
 (let ((?x178 (* (- 1.0) a1y)))
 (let ((?x269 (* ?x178 b3x)))
 (let ((?x232 (* (- 1.0) a1x)))
 (let ((?x233 (* ?x232 xy)))
 (let ((?x344 (+ (+ (+ (+ (* a1x b3y) (* a1y xx)) (* b3x xy)) ?x233) ?x269)))
 (> (+ ?x344 ?x318) 0.0)))))))))
(assert
 (let ((?x26 (* (- 1.0) v1x)))
 (let ((?x237 (* ?x26 xy)))
 (let ((?x191 (* (- 1.0) b1y)))
 (let ((?x306 (* ?x191 xx)))
 (let ((?x189 (* (- 1.0) b1x)))
 (let ((?x272 (* ?x189 v1y)))
 (let ((?x350 (+ (+ (+ (+ (* b1x xy) (* b1y v1x)) (* v1y xx)) ?x272) ?x306)))
 (> (+ ?x350 ?x237) 0.0)))))))))
(assert
 (let ((?x26 (* (- 1.0) v1x)))
 (let ((?x237 (* ?x26 xy)))
 (let ((?x205 (* (- 1.0) b2y)))
 (let ((?x312 (* ?x205 xx)))
 (let ((?x203 (* (- 1.0) b2x)))
 (let ((?x275 (* ?x203 v1y)))
 (let ((?x356 (+ (+ (+ (+ (* b2x xy) (* b2y v1x)) (* v1y xx)) ?x275) ?x312)))
 (> (+ ?x356 ?x237) 0.0)))))))))
(assert
 (let ((?x26 (* (- 1.0) v1x)))
 (let ((?x237 (* ?x26 xy)))
 (let ((?x219 (* (- 1.0) b3y)))
 (let ((?x318 (* ?x219 xx)))
 (let ((?x217 (* (- 1.0) b3x)))
 (let ((?x278 (* ?x217 v1y)))
 (let ((?x362 (+ (+ (+ (+ (* b3x xy) (* b3y v1x)) (* v1y xx)) ?x278) ?x318)))
 (> (+ ?x362 ?x237) 0.0)))))))))
(assert
 (let ((?x205 (* (- 1.0) b2y)))
 (let ((?x312 (* ?x205 xx)))
 (let ((?x191 (* (- 1.0) b1y)))
 (let ((?x282 (* ?x191 b2x)))
 (let ((?x189 (* (- 1.0) b1x)))
 (let ((?x241 (* ?x189 xy)))
 (let ((?x368 (+ (+ (+ (+ (* b1x b2y) (* b1y xx)) (* b2x xy)) ?x241) ?x282)))
 (> (+ ?x368 ?x312) 0.0)))))))))
(assert
 (let ((?x219 (* (- 1.0) b3y)))
 (let ((?x318 (* ?x219 xx)))
 (let ((?x191 (* (- 1.0) b1y)))
 (let ((?x286 (* ?x191 b3x)))
 (let ((?x189 (* (- 1.0) b1x)))
 (let ((?x241 (* ?x189 xy)))
 (let ((?x374 (+ (+ (+ (+ (* b1x b3y) (* b1y xx)) (* b3x xy)) ?x241) ?x286)))
 (> (+ ?x374 ?x318) 0.0)))))))))
(assert
 (let ((?x219 (* (- 1.0) b3y)))
 (let ((?x318 (* ?x219 xx)))
 (let ((?x205 (* (- 1.0) b2y)))
 (let ((?x290 (* ?x205 b3x)))
 (let ((?x203 (* (- 1.0) b2x)))
 (let ((?x245 (* ?x203 xy)))
 (let ((?x380 (+ (+ (+ (+ (* b2x b3y) (* b2y xx)) (* b3x xy)) ?x245) ?x290)))
 (> (+ ?x380 ?x318) 0.0)))))))))
(assert
 (let ((?x178 (* (- 1.0) a1y)))
 (let ((?x179 (* ?x178 v1x)))
 (> (+ (+ (+ a1y (* (- 1.0) v1y)) (* a1x v1y)) ?x179) 0.0))))
(assert
 (let ((?x178 (* (- 1.0) a1y)))
 (let ((?x261 (* ?x178 b1x)))
 (> (+ (+ (+ a1y (* (- 1.0) b1y)) (* a1x b1y)) ?x261) 0.0))))
(assert
 (let ((?x178 (* (- 1.0) a1y)))
 (let ((?x265 (* ?x178 b2x)))
 (> (+ (+ (+ a1y (* (- 1.0) b2y)) (* a1x b2y)) ?x265) 0.0))))
(assert
 (let ((?x178 (* (- 1.0) a1y)))
 (let ((?x269 (* ?x178 b3x)))
 (> (+ (+ (+ a1y (* (- 1.0) b3y)) (* a1x b3y)) ?x269) 0.0))))
(assert
 (let ((?x189 (* (- 1.0) b1x)))
 (let ((?x272 (* ?x189 v1y)))
 (> (+ (+ (+ v1y (* (- 1.0) b1y)) (* b1y v1x)) ?x272) 0.0))))
(assert
 (let ((?x203 (* (- 1.0) b2x)))
 (let ((?x275 (* ?x203 v1y)))
 (> (+ (+ (+ v1y (* (- 1.0) b2y)) (* b2y v1x)) ?x275) 0.0))))
(assert
 (let ((?x217 (* (- 1.0) b3x)))
 (let ((?x278 (* ?x217 v1y)))
 (> (+ (+ (+ v1y (* (- 1.0) b3y)) (* b3y v1x)) ?x278) 0.0))))
(assert
 (let ((?x191 (* (- 1.0) b1y)))
 (let ((?x282 (* ?x191 b2x)))
 (> (+ (+ (+ b1y (* (- 1.0) b2y)) (* b1x b2y)) ?x282) 0.0))))
(assert
 (let ((?x191 (* (- 1.0) b1y)))
 (let ((?x286 (* ?x191 b3x)))
 (> (+ (+ (+ b1y (* (- 1.0) b3y)) (* b1x b3y)) ?x286) 0.0))))
(assert
 (let ((?x205 (* (- 1.0) b2y)))
 (let ((?x290 (* ?x205 b3x)))
 (> (+ (+ (+ b2y (* (- 1.0) b3y)) (* b2x b3y)) ?x290) 0.0))))
(assert
 (let ((?x189 (* (- 1.0) b1x)))
 (let ((?x272 (* ?x189 v1y)))
 (let ((?x178 (* (- 1.0) a1y)))
 (let ((?x179 (* ?x178 v1x)))
 (let ((?x427 (+ (+ (+ (* a1x v1y) (* a1y b1x)) (* b1y v1x)) (* (* (- 1.0) a1x) b1y))))
 (> (+ (+ ?x427 ?x179) ?x272) 0.0)))))))
(assert
 (let ((?x203 (* (- 1.0) b2x)))
 (let ((?x275 (* ?x203 v1y)))
 (let ((?x178 (* (- 1.0) a1y)))
 (let ((?x179 (* ?x178 v1x)))
 (let ((?x232 (* (- 1.0) a1x)))
 (let ((?x432 (* ?x232 b2y)))
 (let ((?x436 (+ (+ (+ (+ (* a1x v1y) (* a1y b2x)) (* b2y v1x)) ?x432) ?x179)))
 (> (+ ?x436 ?x275) 0.0)))))))))
(assert
 (let ((?x217 (* (- 1.0) b3x)))
 (let ((?x278 (* ?x217 v1y)))
 (let ((?x178 (* (- 1.0) a1y)))
 (let ((?x179 (* ?x178 v1x)))
 (let ((?x232 (* (- 1.0) a1x)))
 (let ((?x440 (* ?x232 b3y)))
 (let ((?x444 (+ (+ (+ (+ (* a1x v1y) (* a1y b3x)) (* b3y v1x)) ?x440) ?x179)))
 (> (+ ?x444 ?x278) 0.0)))))))))
(assert
 (let ((?x191 (* (- 1.0) b1y)))
 (let ((?x282 (* ?x191 b2x)))
 (let ((?x178 (* (- 1.0) a1y)))
 (let ((?x261 (* ?x178 b1x)))
 (let ((?x232 (* (- 1.0) a1x)))
 (let ((?x432 (* ?x232 b2y)))
 (let ((?x450 (+ (+ (+ (+ (* a1x b1y) (* a1y b2x)) (* b1x b2y)) ?x432) ?x261)))
 (> (+ ?x450 ?x282) 0.0)))))))))
(assert
 (let ((?x191 (* (- 1.0) b1y)))
 (let ((?x286 (* ?x191 b3x)))
 (let ((?x178 (* (- 1.0) a1y)))
 (let ((?x261 (* ?x178 b1x)))
 (let ((?x232 (* (- 1.0) a1x)))
 (let ((?x440 (* ?x232 b3y)))
 (let ((?x456 (+ (+ (+ (+ (* a1x b1y) (* a1y b3x)) (* b1x b3y)) ?x440) ?x261)))
 (> (+ ?x456 ?x286) 0.0)))))))))
(assert
 (let ((?x205 (* (- 1.0) b2y)))
 (let ((?x290 (* ?x205 b3x)))
 (let ((?x178 (* (- 1.0) a1y)))
 (let ((?x265 (* ?x178 b2x)))
 (let ((?x232 (* (- 1.0) a1x)))
 (let ((?x440 (* ?x232 b3y)))
 (let ((?x462 (+ (+ (+ (+ (* a1x b2y) (* a1y b3x)) (* b2x b3y)) ?x440) ?x265)))
 (> (+ ?x462 ?x290) 0.0)))))))))
(assert
 (let ((?x191 (* (- 1.0) b1y)))
 (let ((?x282 (* ?x191 b2x)))
 (let ((?x189 (* (- 1.0) b1x)))
 (let ((?x272 (* ?x189 v1y)))
 (let ((?x470 (+ (+ (+ (+ (* b1x b2y) (* b1y v1x)) (* b2x v1y)) ?x272) ?x282)))
 (> (+ ?x470 (* (* (- 1.0) b2y) v1x)) 0.0)))))))
(assert
 (let ((?x219 (* (- 1.0) b3y)))
 (let ((?x474 (* ?x219 v1x)))
 (let ((?x191 (* (- 1.0) b1y)))
 (let ((?x286 (* ?x191 b3x)))
 (let ((?x189 (* (- 1.0) b1x)))
 (let ((?x272 (* ?x189 v1y)))
 (let ((?x478 (+ (+ (+ (+ (* b1x b3y) (* b1y v1x)) (* b3x v1y)) ?x272) ?x286)))
 (> (+ ?x478 ?x474) 0.0)))))))))
(assert
 (let ((?x219 (* (- 1.0) b3y)))
 (let ((?x474 (* ?x219 v1x)))
 (let ((?x205 (* (- 1.0) b2y)))
 (let ((?x290 (* ?x205 b3x)))
 (let ((?x203 (* (- 1.0) b2x)))
 (let ((?x275 (* ?x203 v1y)))
 (let ((?x484 (+ (+ (+ (+ (* b2x b3y) (* b2y v1x)) (* b3x v1y)) ?x275) ?x290)))
 (> (+ ?x484 ?x474) 0.0)))))))))
(assert
 (let ((?x205 (* (- 1.0) b2y)))
(let ((?x290 (* ?x205 b3x)))
(let ((?x191 (* (- 1.0) b1y)))
(let ((?x282 (* ?x191 b2x)))
(let ((?x491 (+ (+ (+ (* b1x b2y) (* b1y b3x)) (* b2x b3y)) (* (* (- 1.0) b1x) b3y))))
(> (+ (+ ?x491 ?x282) ?x290) 0.0)))))))
(check-sat)
